100
30
4
1
12
4
6
9
11
23
29
28
25
7
10
3
13
2
15
10
14
2
7
4
18
17
27
22
7
18
31
18
3
20
23
5
6
4
13
21
3
21
24
24
5
13
27
1
7
15
22
9
13
28
7
21
8
13
11
12
27
12
10
5
29
24
31
4
18
25
16
28
4
20
30
3
6
21
3
10
19
25
20
32
8
7
4
9
3
22
31
27
32
6
17
4
5
3
2
18
14
11